results_rootrelaxation/bin012_090_006.srr.sol
solution status: optimal solution found
objective value:                                   31
_var712_                                          0.5 	(obj:3)
_var726_                                          0.5 	(obj:2)
_var753_                                          0.5 	(obj:2)
_var762_                            0.499999999999999 	(obj:5)
_var772_                            0.499999999999999 	(obj:2)
_var797_                                          0.5 	(obj:2)
_var798_                                          0.5 	(obj:3)
_var802_                                          0.5 	(obj:2)
_var804_                                          0.5 	(obj:2)
_var831_                            0.499999999999998 	(obj:4)
_var839_                                          0.5 	(obj:3)
_var841_                                          0.5 	(obj:3)
_var854_                                          0.5 	(obj:3)
_var855_                                          0.5 	(obj:3)
_var859_                                          0.5 	(obj:3)
_var875_                                          0.5 	(obj:3)
_var879_                                          0.5 	(obj:3)
_var880_                                          0.5 	(obj:2)
_var881_                                          0.5 	(obj:4)
_var882_                                          0.5 	(obj:3)
_var899_                                          0.5 	(obj:2)
_var908_                            0.499999999999999 	(obj:3)
